(set-logic QF_BV)
(declare-fun _substvar_1904_ () (_ BitVec 8))
(declare-fun _substvar_1857_ () (_ BitVec 33))
(declare-fun _substvar_1858_ () (_ BitVec 8))
(declare-fun _substvar_1885_ () (_ BitVec 8))
(declare-fun _substvar_486_ () (_ BitVec 8))
(declare-fun _substvar_1910_ () (_ BitVec 17))
(declare-fun _substvar_1902_ () (_ BitVec 8))
(declare-fun _substvar_1875_ () (_ BitVec 33))
(declare-fun _substvar_1915_ () (_ BitVec 8))
(declare-fun _substvar_1886_ () (_ BitVec 8))
(declare-fun _substvar_1882_ () (_ BitVec 8))
(declare-fun _substvar_1876_ () (_ BitVec 8))
(declare-fun _substvar_1908_ () (_ BitVec 8))
(declare-fun _substvar_1900_ () (_ BitVec 8))
(assert (let ( (?v_21 (= _substvar_1900_ _substvar_1858_)) (?v_22 (= _substvar_1882_ _substvar_1876_)) (?v_35 ((_ extract 15 8) _substvar_1857_)) (?v_36 ((_ extract 7 0) _substvar_1857_)) (?v_38 (= _substvar_1904_ _substvar_1858_)) (?v_39 (= _substvar_1885_ _substvar_1876_)) (?v_52 ((_ extract 15 8) _substvar_1875_)) (?v_53 ((_ extract 7 0) _substvar_1875_))) (and true true true true true true true true (and true true ?v_21 ?v_22) true true (= _substvar_1857_ (concat (concat _substvar_1910_ _substvar_1900_) _substvar_1882_)) (and true true true (= _substvar_1902_ ?v_35) (= _substvar_1915_ ?v_36)) (= _substvar_486_ (bvadd (bvadd (_ bv0 8) _substvar_1902_) _substvar_1915_)) true true true (and true true ?v_38 ?v_39) (= _substvar_1875_ (concat (concat (_ bv0 17) _substvar_1904_) _substvar_1885_)) (and true true true (= _substvar_1908_ ?v_52) (= _substvar_1886_ ?v_53)) (= (_ bv0 8) (bvadd (bvadd (_ bv0 8) _substvar_1908_) _substvar_1886_)) (not (= (_ bv0 8) _substvar_486_)))))
(check-sat)
(exit)
